solution status: user interrupt
objective value:                     236383.421928573
d11(0,0)                                            1 	(obj:0)
d11(1,1)                                            1 	(obj:0)
d11(2,3)                                            1 	(obj:0)
d11(2,5)                                            1 	(obj:0)
d11(3,9)                                            1 	(obj:0)
d11(3,11)                            1.00000000000001 	(obj:0)
d11(3,13)                                           1 	(obj:0)
d11(4,15)                                           1 	(obj:0)
d11(4,16)                                           1 	(obj:0)
d11(4,17)                                           1 	(obj:0)
d11(4,19)                                           1 	(obj:0)
d11(4,20)                                           1 	(obj:0)
d11(4,21)                                           1 	(obj:0)
d11(4,22)                                           1 	(obj:0)
d11(4,23)                                           1 	(obj:0)
d11(4,24)                                           1 	(obj:0)
d11(4,25)                                           1 	(obj:0)
d11(4,26)                                           1 	(obj:0)
d11(4,27)                                           1 	(obj:0)
d11(4,28)                                           1 	(obj:0)
d11(4,29)                                           1 	(obj:0)
d11(4,30)                                           1 	(obj:0)
d11(5,31)                                           1 	(obj:0)
d11(5,33)                                           1 	(obj:0)
d11(5,35)                                           1 	(obj:0)
d11(5,37)                                           1 	(obj:0)
d11(5,39)                                           1 	(obj:0)
d11(5,41)                                           1 	(obj:0)
d11(5,43)                                           1 	(obj:0)
d11(5,45)                                           1 	(obj:0)
d11(5,47)                                           1 	(obj:0)
d11(5,49)                                           1 	(obj:0)
d11(5,51)                                           1 	(obj:0)
d11(5,53)                                           1 	(obj:0)
d11(5,55)                                           1 	(obj:0)
d11(5,57)                                           1 	(obj:0)
d11(5,59)                                           1 	(obj:0)
d11(5,61)                                           1 	(obj:0)
d11(6,63)                                           1 	(obj:0)
d11(6,64)                                           1 	(obj:0)
d11(6,65)                                           1 	(obj:0)
d11(6,66)                                           1 	(obj:0)
d11(6,67)                                           1 	(obj:0)
d11(6,68)                                           1 	(obj:0)
d11(6,69)                                           1 	(obj:0)
d11(6,70)                                           1 	(obj:0)
d11(6,71)                                           1 	(obj:0)
d11(6,72)                                           1 	(obj:0)
d11(6,73)                                           1 	(obj:0)
d11(6,74)                                           1 	(obj:0)
d11(6,75)                                           1 	(obj:0)
d11(6,76)                                           1 	(obj:0)
d11(6,77)                                           1 	(obj:0)
d11(6,78)                                           1 	(obj:0)
d11(6,79)                                           1 	(obj:0)
d11(6,80)                                           1 	(obj:0)
d11(6,81)                                           1 	(obj:0)
d11(6,82)                                           1 	(obj:0)
d11(6,83)                                           1 	(obj:0)
d11(6,84)                                           1 	(obj:0)
d11(6,85)                                           1 	(obj:0)
d11(6,86)                                           1 	(obj:0)
d11(6,87)                                           1 	(obj:0)
d11(6,88)                                           1 	(obj:0)
d11(6,89)                                           1 	(obj:0)
d11(6,91)                                           1 	(obj:0)
d11(6,92)                                           1 	(obj:0)
d11(6,93)                                           1 	(obj:0)
d11(6,94)                                           1 	(obj:0)
d11(6,95)                                           1 	(obj:0)
d11(6,96)                                           1 	(obj:0)
d11(6,97)                                           1 	(obj:0)
d11(6,98)                                           1 	(obj:0)
d11(6,99)                                           1 	(obj:0)
d11(6,100)                                          1 	(obj:0)
d11(6,101)                                          1 	(obj:0)
d11(6,102)                                          1 	(obj:0)
d11(6,103)                                          1 	(obj:0)
d11(6,104)                                          1 	(obj:0)
d11(6,105)                                          1 	(obj:0)
d11(6,106)                                          1 	(obj:0)
d11(6,107)                                          1 	(obj:0)
d11(6,108)                                          1 	(obj:0)
d11(6,109)                                          1 	(obj:0)
d11(6,110)                                          1 	(obj:0)
d11(6,111)                                          1 	(obj:0)
d11(6,112)                                          1 	(obj:0)
d11(6,113)                                          1 	(obj:0)
d11(6,114)                                          1 	(obj:0)
d11(6,115)                                          1 	(obj:0)
d11(6,116)                                          1 	(obj:0)
d11(6,117)                                          1 	(obj:0)
d11(6,118)                                          1 	(obj:0)
d11(6,119)                                          1 	(obj:0)
d11(6,120)                                          1 	(obj:0)
d11(6,121)                                          1 	(obj:0)
d11(6,122)                                          1 	(obj:0)
d11(6,123)                                          1 	(obj:0)
d11(6,124)                                          1 	(obj:0)
d11(6,125)                                          1 	(obj:0)
d11(6,126)                                          1 	(obj:0)
d12(3,8)                                            1 	(obj:0)
d12(3,10)                                           1 	(obj:0)
d12(3,12)                                           1 	(obj:0)
d12(3,14)                                           1 	(obj:0)
d21(4,15)                                           1 	(obj:0)
d21(5,31)                                           1 	(obj:0)
d21(5,32)                                           1 	(obj:0)
d21(5,33)                                           1 	(obj:0)
d21(5,35)                                           1 	(obj:0)
d21(5,39)                                           1 	(obj:0)
d21(5,47)                                           1 	(obj:0)
d21(6,63)                                           1 	(obj:0)
d21(6,64)                                           1 	(obj:0)
d21(6,65)                                           1 	(obj:0)
d21(6,66)                                           1 	(obj:0)
d21(6,67)                                           1 	(obj:0)
d21(6,68)                                           1 	(obj:0)
d21(6,69)                                           1 	(obj:0)
d21(6,71)                                           1 	(obj:0)
d21(6,72)                                           1 	(obj:0)
d21(6,73)                                           1 	(obj:0)
d21(6,74)                                           1 	(obj:0)
d21(6,75)                                           1 	(obj:0)
d21(6,76)                                           1 	(obj:0)
d21(6,77)                                           1 	(obj:0)
d21(6,79)                                           1 	(obj:0)
d21(6,80)                                           1 	(obj:0)
d21(6,81)                                           1 	(obj:0)
d21(6,82)                                           1 	(obj:0)
d21(6,83)                                           1 	(obj:0)
d21(6,85)                                           1 	(obj:0)
d21(6,87)                                           1 	(obj:0)
d21(6,88)                                           1 	(obj:0)
d21(6,89)                                           1 	(obj:0)
d21(6,91)                                           1 	(obj:0)
d21(6,95)                                           1 	(obj:0)
d21(6,96)                                           1 	(obj:0)
d21(6,97)                                           1 	(obj:0)
d21(6,99)                                           1 	(obj:0)
d21(6,103)                                          1 	(obj:0)
d21(6,104)                                          1 	(obj:0)
d21(6,105)                                          1 	(obj:0)
d21(6,107)                                          1 	(obj:0)
d21(6,111)                                          1 	(obj:0)
d21(6,113)                                          1 	(obj:0)
d21(6,119)                                          1 	(obj:0)
STE(1,1)                              5586.7501011112 	(obj:0)
STE(0,0)                                         7875 	(obj:0)
STE(1,2)                             7244.99999999999 	(obj:0)
STE(2,3)                             3307.50000000002 	(obj:0)
STE(2,4)                              4956.7501011112 	(obj:0)
STE(2,5)                             4965.74989888882 	(obj:0)
STE(2,6)                             6614.99999999996 	(obj:0)
STE(3,7)                             2677.50000000002 	(obj:0)
STE(3,8)                             3993.71408587653 	(obj:0)
STE(3,9)                             4326.75010111124 	(obj:0)
STE(3,10)                             5642.9641869877 	(obj:0)
STE(3,11)                            4335.74989888882 	(obj:0)
STE(3,12)                            5651.96398476532 	(obj:0)
STE(3,13)                                        5985 	(obj:0)
STE(3,14)                            7301.21408587647 	(obj:0)
STE(4,15)                            389.250101111202 	(obj:0)
STE(4,16)                            2047.50000000002 	(obj:0)
STE(4,17)                            1705.46418698771 	(obj:0)
STE(4,18)                            3363.71408587653 	(obj:0)
STE(4,19)                            2038.50020222242 	(obj:0)
STE(4,20)                            3696.75010111124 	(obj:0)
STE(4,21)                            3354.71428809888 	(obj:0)
STE(4,22)                             5012.9641869877 	(obj:0)
STE(4,23)                                      2047.5 	(obj:0)
STE(4,24)                            3705.74989888884 	(obj:0)
STE(4,25)                            3363.71408587651 	(obj:0)
STE(4,26)                            5021.96398476532 	(obj:0)
STE(4,27)                            3696.75010111119 	(obj:0)
STE(4,28)                                        5355 	(obj:0)
STE(4,29)                            5012.96418698765 	(obj:0)
STE(4,30)                            6671.21408587647 	(obj:0)
STE(5,31)                           -1889.99999999996 	(obj:0)
STE(5,32)                           -240.749898888798 	(obj:0)
STE(5,33)                           -231.750101111146 	(obj:0)
STE(5,34)                            1417.50000000002 	(obj:0)
STE(5,35)                           -573.785914123458 	(obj:0)
STE(5,36)                            1075.46418698771 	(obj:0)
STE(5,37)                            1084.46398476536 	(obj:0)
STE(5,38)                            2733.71408587653 	(obj:0)
STE(5,39)                           -240.749898888769 	(obj:0)
STE(5,40)                            1408.50020222242 	(obj:0)
STE(5,41)                            1417.50000000007 	(obj:0)
STE(5,42)                            3066.75010111124 	(obj:0)
STE(5,43)                            1075.46418698772 	(obj:0)
STE(5,44)                            2724.71428809888 	(obj:0)
STE(5,45)                            2733.71408587654 	(obj:0)
STE(5,46)                             4382.9641869877 	(obj:0)
STE(5,47)                           -231.750101111165 	(obj:0)
STE(5,48)                            1417.50000000002 	(obj:0)
STE(5,49)                            1426.49979777767 	(obj:0)
STE(5,50)                            3075.74989888884 	(obj:0)
STE(5,51)                            1084.46398476534 	(obj:0)
STE(5,52)                            2733.71408587651 	(obj:0)
STE(5,53)                            2742.71388365416 	(obj:0)
STE(5,54)                            4391.96398476532 	(obj:0)
STE(5,55)                            1417.50000000002 	(obj:0)
STE(5,56)                            3066.75010111119 	(obj:0)
STE(5,57)                            3075.74989888884 	(obj:0)
STE(5,58)                                        4725 	(obj:0)
STE(5,59)                            2733.71408587648 	(obj:0)
STE(5,60)                            4382.96418698765 	(obj:0)
STE(5,61)                             4391.9639847653 	(obj:0)
STE(5,62)                            6041.21408587647 	(obj:0)
STE(6,63)                            -4178.2498988888 	(obj:0)
STE(6,64)                           -2519.99999999999 	(obj:0)
STE(6,65)                           -2528.99979777764 	(obj:0)
STE(6,66)                           -870.749898888798 	(obj:0)
STE(6,67)                           -2519.99999999998 	(obj:0)
STE(6,68)                           -861.750101111146 	(obj:0)
STE(6,69)                           -870.749898888818 	(obj:0)
STE(6,70)                             787.50000000002 	(obj:0)
STE(6,71)                            -2862.0358130123 	(obj:0)
STE(6,72)                           -1203.78591412346 	(obj:0)
STE(6,73)                           -1212.78571190113 	(obj:0)
STE(6,74)                            445.464186987708 	(obj:0)
STE(6,75)                           -1203.78591412348 	(obj:0)
STE(6,76)                            454.463984765359 	(obj:0)
STE(6,77)                            445.464186987688 	(obj:0)
STE(6,78)                            2103.71408587653 	(obj:0)
STE(6,79)                           -2528.99979777761 	(obj:0)
STE(6,80)                            -870.74989888879 	(obj:0)
STE(6,81)                           -879.749696666417 	(obj:0)
STE(6,82)                            778.500202222421 	(obj:0)
STE(6,83)                           -870.749898888765 	(obj:0)
STE(6,84)                            787.500000000073 	(obj:0)
STE(6,85)                            778.500202222401 	(obj:0)
STE(6,86)                            2436.75010111124 	(obj:0)
STE(6,87)                           -1212.78571190112 	(obj:0)
STE(6,88)                            445.464186987718 	(obj:0)
STE(6,89)                            436.464389210046 	(obj:0)
STE(6,90)                            2094.71428809888 	(obj:0)
STE(6,91)                            445.464186987697 	(obj:0)
STE(6,92)                            2103.71408587654 	(obj:0)
STE(6,93)                            2094.71428809886 	(obj:0)
STE(6,94)                             3752.9641869877 	(obj:0)
STE(6,95)                                       -2520 	(obj:0)
STE(6,96)                           -861.750101111165 	(obj:0)
STE(6,97)                           -870.749898888818 	(obj:0)
STE(6,98)                             787.50000000002 	(obj:0)
STE(6,99)                           -861.750101111166 	(obj:0)
STE(6,100)                           796.499797777672 	(obj:0)
STE(6,101)                           787.499999999999 	(obj:0)
STE(6,102)                           2445.74989888884 	(obj:0)
STE(6,103)                           -1203.7859141235 	(obj:0)
STE(6,104)                           454.463984765341 	(obj:0)
STE(6,105)                           445.464186987669 	(obj:0)
STE(6,106)                           2103.71408587651 	(obj:0)
STE(6,107)                            454.46398476532 	(obj:0)
STE(6,108)                           2112.71388365416 	(obj:0)
STE(6,109)                           2103.71408587649 	(obj:0)
STE(6,110)                           3761.96398476532 	(obj:0)
STE(6,111)                          -870.749898888818 	(obj:0)
STE(6,112)                            787.50000000002 	(obj:0)
STE(6,113)                           778.500202222347 	(obj:0)
STE(6,114)                           2436.75010111119 	(obj:0)
STE(6,115)                           787.499999999998 	(obj:0)
STE(6,116)                           2445.74989888884 	(obj:0)
STE(6,117)                           2436.75010111116 	(obj:0)
STE(6,118)                                       4095 	(obj:0)
STE(6,119)                           445.464186987643 	(obj:0)
STE(6,120)                           2103.71408587648 	(obj:0)
STE(6,121)                           2094.71428809881 	(obj:0)
STE(6,122)                           3752.96418698765 	(obj:0)
STE(6,123)                           2103.71408587646 	(obj:0)
STE(6,124)                            3761.9639847653 	(obj:0)
STE(6,125)                           3752.96418698763 	(obj:0)
STE(6,126)                           5411.21408587647 	(obj:0)
y1(6,99)                             1492.42490899995 	(obj:0)
y1(6,101)                            1492.42490899995 	(obj:0)
y1(6,103)                            1492.42490899995 	(obj:0)
y1(6,105)                            1492.42490899995 	(obj:0)
y1(6,107)                            1492.42490899995 	(obj:0)
y1(6,109)                            1492.42490899995 	(obj:0)
y1(6,111)                            1492.42490899995 	(obj:0)
y1(6,113)                            1492.42490899995 	(obj:0)
y1(6,115)                            1492.42490899995 	(obj:0)
y1(6,117)                            1492.42490899995 	(obj:0)
y1(6,119)                            1492.42490899995 	(obj:0)
y1(6,121)                            1492.42490899995 	(obj:0)
y1(6,123)                            1492.42490899995 	(obj:0)
y1(6,125)                            1492.42490899995 	(obj:0)
BG(5)                                715.257300629778 	(obj:10)
BG(6)                                1149.93060391278 	(obj:10)
AVE(1)                               3259.55177567504 	(obj:0)
AVE(2)                               3259.55588804169 	(obj:0)
WB(3)                                905.951713316149 	(obj:0)
AVE(3)                               3579.36165209166 	(obj:0)
AVE(4)                               3579.36576445831 	(obj:0)
AVE(5)                               3472.77007794174 	(obj:0)
AVE(6)                                3046.3618950668 	(obj:0)
WG(1)                                3259.55177567504 	(obj:10)
WG(2)                                3259.55588804169 	(obj:10)
WG(3)                                2673.40993877551 	(obj:10)
WG(4)                                3579.36576445831 	(obj:10)
WG(5)                                3472.77007794174 	(obj:10)
WG(6)                                 3046.3618950668 	(obj:10)
BG(1)                                936.740723304513 	(obj:10)
BG(2)                                928.471490529837 	(obj:10)
BG(4)                                616.926734521257 	(obj:10)
y1(1,1)                              1492.42490899992 	(obj:0)
y1(2,3)                              1484.32509100006 	(obj:0)
y1(2,5)                              1484.32509100006 	(obj:0)
y1(4,15)                             1492.42490899994 	(obj:0)
y1(4,17)                             1492.42490899994 	(obj:0)
y1(4,19)                             1492.42490899994 	(obj:0)
y1(4,21)                             1492.42490899994 	(obj:0)
y1(4,23)                             1492.42490899994 	(obj:0)
y1(4,25)                             1492.42490899994 	(obj:0)
y1(4,27)                             1492.42490899994 	(obj:0)
y1(4,29)                             1492.42490899994 	(obj:0)
y1(5,31)                             1484.32509100005 	(obj:0)
y1(5,33)                             1484.32509100005 	(obj:0)
y1(5,35)                             1484.32509100005 	(obj:0)
y1(5,37)                             1484.32509100005 	(obj:0)
y1(5,39)                             1484.32509100007 	(obj:0)
y1(5,41)                             1484.32509100005 	(obj:0)
y1(5,43)                             1484.32509100005 	(obj:0)
y1(5,45)                             1484.32509100005 	(obj:0)
y1(5,47)                             1484.32509100005 	(obj:0)
y1(5,49)                             1484.32509100005 	(obj:0)
y1(5,51)                             1484.32509100005 	(obj:0)
y1(5,53)                             1484.32509100005 	(obj:0)
y1(5,55)                             1484.32509100005 	(obj:0)
y1(5,57)                             1484.32509100005 	(obj:0)
y1(5,59)                             1484.32509100005 	(obj:0)
y1(5,61)                             1484.32509100005 	(obj:0)
y1(6,63)                             1492.42490899995 	(obj:0)
y1(6,65)                             1492.42490899995 	(obj:0)
y1(6,67)                             1492.42490899995 	(obj:0)
y1(6,69)                             1492.42490899995 	(obj:0)
y1(6,71)                             1492.42490899995 	(obj:0)
y1(6,73)                             1492.42490899995 	(obj:0)
y1(6,75)                             1492.42490899995 	(obj:0)
y1(6,77)                             1492.42490899995 	(obj:0)
y1(6,79)                             1492.42490899995 	(obj:0)
y1(6,81)                             1492.42490899995 	(obj:0)
y1(6,83)                             1492.42490899995 	(obj:0)
y1(6,85)                             1492.42490899995 	(obj:0)
y1(6,87)                             1492.42490899995 	(obj:0)
y1(6,89)                             1492.42490899995 	(obj:0)
y1(6,91)                             1492.42490899995 	(obj:0)
y1(6,93)                             1492.42490899995 	(obj:0)
y1(6,95)                             1492.42490899995 	(obj:0)
y1(6,97)                             1492.42490899995 	(obj:0)
y2(3,8)                              1385.48851144895 	(obj:0)
y2(3,10)                             1385.48851144895 	(obj:0)
y2(3,12)                             1385.48851144895 	(obj:0)
y2(3,14)                             1385.48851144895 	(obj:0)
